min: c;

c = 3.82777515214332 * u3_t10_h0 + 3.21959665794483 * u3_t10_h1 + 3.04259384326658 * u3_t4_h2 + 3.04259384326658 * u3_t10_h2 + 3.17982511619084 * u3_t4_h3 + 3.17982511619084 * u3_t10_h3 + 3.46885280267708 * u3_t4_h4 + 3.46885280267708 * u3_t10_h4 + 3.25331514646487 * u3_t4_h5 + 3.25331514646487 * u3_t10_h5 + 4.38247645886552 * u3_t4_h6 + 4.38247645886552 * u3_t10_h6 + 4.01283875311857 * u3_t4_h7 + 4.01283875311857 * u3_t9_h7 + 4.01283875311857 * u3_t10_h7 + 5.72858630267492 * u3_t4_h8 + 5.72858630267492 * u3_t9_h8 + 4.76077867036614 * u3_t4_h9 + 4.76077867036614 * u3_t9_h9 + 5.87747414643875 * u3_t4_h10 + 5.87747414643875 * u3_t6_h10 + 5.87747414643875 * u3_t9_h10 + 3.6240017754808 * u3_t3_h11 + 3.6240017754808 * u3_t4_h11 + 3.6240017754808 * u3_t6_h11 + 3.6240017754808 * u3_t9_h11 + 5.77368517918127 * u3_t3_h12 + 5.77368517918127 * u3_t4_h12 + 5.77368517918127 * u3_t6_h12 + 5.77368517918127 * u3_t9_h12 + 4.30932124023077 * u3_t3_h13 + 4.30932124023077 * u3_t4_h13 + 4.30932124023077 * u3_t5_h13 + 4.30932124023077 * u3_t6_h13 + 4.30932124023077 * u3_t9_h13 + 5.83966899737267 * u3_t3_h14 + 5.83966899737267 * u3_t4_h14 + 5.83966899737267 * u3_t5_h14 + 5.83966899737267 * u3_t6_h14 + 5.83966899737267 * u3_t9_h14 + 6.26169140036197 * u3_t2_h15 + 6.26169140036197 * u3_t3_h15 + 6.26169140036197 * u3_t4_h15 + 6.26169140036197 * u3_t5_h15 + 6.26169140036197 * u3_t6_h15 + 6.26169140036197 * u3_t9_h15 + 6.15252586879726 * u3_t2_h16 + 6.15252586879726 * u3_t4_h16 + 6.15252586879726 * u3_t5_h16 + 6.15252586879726 * u3_t6_h16 + 6.15252586879726 * u3_t9_h16 + 5.88566790240526 * u3_t2_h17 + 5.88566790240526 * u3_t4_h17 + 5.88566790240526 * u3_t6_h17 + 5.88566790240526 * u3_t9_h17 + 6.94232320601809 * u3_t2_h18 + 6.94232320601809 * u3_t6_h18 + 6.94232320601809 * u3_t9_h18 + 5.36123945149729 * u3_t2_h19 + 5.36123945149729 * u3_t9_h19 + 5.92950490199927 * u3_t1_h20 + 5.92950490199927 * u3_t2_h20 + 5.92950490199927 * u3_t8_h20 + 5.92950490199927 * u3_t9_h20 + 5.51699425461313 * u3_t1_h21 + 5.51699425461313 * u3_t2_h21 + 5.51699425461313 * u3_t7_h21 + 5.51699425461313 * u3_t8_h21 + 5.51699425461313 * u3_t9_h21 + 6.00294159370126 * u3_t1_h22 + 6.00294159370126 * u3_t7_h22 + 6.00294159370126 * u3_t8_h22 + 5.27332479129281 * u3_t1_h23 + 5.27332479129281 * u3_t7_h23 + 5.27332479129281 * u3_t8_h23;
0 <= u3_t1_h20 <= 1;
0 <= u3_t1_h21 <= 1;
0 <= u3_t1_h22 <= 1;
0 <= u3_t1_h23 <= 1;
u3_t1_h20 + u3_t1_h21 + u3_t1_h22 + u3_t1_h23 = 2;
0 <= u3_t2_h15 <= 1;
0 <= u3_t2_h16 <= 1;
0 <= u3_t2_h17 <= 1;
0 <= u3_t2_h18 <= 1;
0 <= u3_t2_h19 <= 1;
0 <= u3_t2_h20 <= 1;
0 <= u3_t2_h21 <= 1;
u3_t2_h15 + u3_t2_h16 + u3_t2_h17 + u3_t2_h18 + u3_t2_h19 + u3_t2_h20 + u3_t2_h21 = 3;
0 <= u3_t3_h11 <= 1;
0 <= u3_t3_h12 <= 1;
0 <= u3_t3_h13 <= 1;
0 <= u3_t3_h14 <= 1;
0 <= u3_t3_h15 <= 1;
u3_t3_h11 + u3_t3_h12 + u3_t3_h13 + u3_t3_h14 + u3_t3_h15 = 2;
0 <= u3_t4_h2 <= 1;
0 <= u3_t4_h3 <= 1;
0 <= u3_t4_h4 <= 1;
0 <= u3_t4_h5 <= 1;
0 <= u3_t4_h6 <= 1;
0 <= u3_t4_h7 <= 1;
0 <= u3_t4_h8 <= 1;
0 <= u3_t4_h9 <= 1;
0 <= u3_t4_h10 <= 1;
0 <= u3_t4_h11 <= 1;
0 <= u3_t4_h12 <= 1;
0 <= u3_t4_h13 <= 1;
0 <= u3_t4_h14 <= 1;
0 <= u3_t4_h15 <= 1;
0 <= u3_t4_h16 <= 1;
0 <= u3_t4_h17 <= 1;
u3_t4_h2 + u3_t4_h3 + u3_t4_h4 + u3_t4_h5 + u3_t4_h6 + u3_t4_h7 + u3_t4_h8 + u3_t4_h9 + u3_t4_h10 + u3_t4_h11 + u3_t4_h12 + u3_t4_h13 + u3_t4_h14 + u3_t4_h15 + u3_t4_h16 + u3_t4_h17 = 3;
0 <= u3_t5_h13 <= 1;
0 <= u3_t5_h14 <= 1;
0 <= u3_t5_h15 <= 1;
0 <= u3_t5_h16 <= 1;
u3_t5_h13 + u3_t5_h14 + u3_t5_h15 + u3_t5_h16 = 2;
0 <= u3_t6_h10 <= 1;
0 <= u3_t6_h11 <= 1;
0 <= u3_t6_h12 <= 1;
0 <= u3_t6_h13 <= 1;
0 <= u3_t6_h14 <= 1;
0 <= u3_t6_h15 <= 1;
0 <= u3_t6_h16 <= 1;
0 <= u3_t6_h17 <= 1;
0 <= u3_t6_h18 <= 1;
u3_t6_h10 + u3_t6_h11 + u3_t6_h12 + u3_t6_h13 + u3_t6_h14 + u3_t6_h15 + u3_t6_h16 + u3_t6_h17 + u3_t6_h18 = 2;
0 <= u3_t7_h21 <= 1;
0 <= u3_t7_h22 <= 1;
0 <= u3_t7_h23 <= 1;
u3_t7_h21 + u3_t7_h22 + u3_t7_h23 = 2;
0 <= u3_t8_h20 <= 1;
0 <= u3_t8_h21 <= 1;
0 <= u3_t8_h22 <= 1;
0 <= u3_t8_h23 <= 1;
u3_t8_h20 + u3_t8_h21 + u3_t8_h22 + u3_t8_h23 = 1;
0 <= u3_t9_h7 <= 1;
0 <= u3_t9_h8 <= 1;
0 <= u3_t9_h9 <= 1;
0 <= u3_t9_h10 <= 1;
0 <= u3_t9_h11 <= 1;
0 <= u3_t9_h12 <= 1;
0 <= u3_t9_h13 <= 1;
0 <= u3_t9_h14 <= 1;
0 <= u3_t9_h15 <= 1;
0 <= u3_t9_h16 <= 1;
0 <= u3_t9_h17 <= 1;
0 <= u3_t9_h18 <= 1;
0 <= u3_t9_h19 <= 1;
0 <= u3_t9_h20 <= 1;
0 <= u3_t9_h21 <= 1;
u3_t9_h7 + u3_t9_h8 + u3_t9_h9 + u3_t9_h10 + u3_t9_h11 + u3_t9_h12 + u3_t9_h13 + u3_t9_h14 + u3_t9_h15 + u3_t9_h16 + u3_t9_h17 + u3_t9_h18 + u3_t9_h19 + u3_t9_h20 + u3_t9_h21 = 2;
0 <= u3_t10_h0 <= 1;
0 <= u3_t10_h1 <= 1;
0 <= u3_t10_h2 <= 1;
0 <= u3_t10_h3 <= 1;
0 <= u3_t10_h4 <= 1;
0 <= u3_t10_h5 <= 1;
0 <= u3_t10_h6 <= 1;
0 <= u3_t10_h7 <= 1;
u3_t10_h0 + u3_t10_h1 + u3_t10_h2 + u3_t10_h3 + u3_t10_h4 + u3_t10_h5 + u3_t10_h6 + u3_t10_h7 = 3;
